units real
atom_style full
region box block -25 25 -25 25 -25 25
create_box 2 box bond/types 1 angle/types 1 &
            extra/bond/per/atom 2 extra/angle/per/atom 1 extra/special/per/atom 2

mass 1 15.9994
mass 2 1.008

pair_style lj/cut/tip4p/long 1 2 1 1 0.1577 9.5
kspace_style pppm/tip4p 1.0e-5

pair_coeff 1 1 0.21084 3.1668
pair_coeff 2 2 0.0    1.0
pair_modify tail yes

bond_style zero
bond_coeff 1 0.9572

angle_style zero
angle_coeff 1 104.52

molecule water tip3p.mol  # this uses the TIP3P geometry
create_atoms 0 random 4096 34564 NULL mol water 25367 overlap 1.33
# must change charges for TIP4P
set type 1 charge -1.1794
set type 2 charge  0.5897

fix rigid all shake 0.001 10 10000 b 1 a 1
minimize 0.0 0.0 1000 10000

reset_timestep 0
timestep 1.0
velocity all create 300.0 5463576
fix integrate all nvt temp 300 300 100.0

variable massAll equal mass(all)/6.022e23
variable volCm3 equal vol*1.0e-24
variable density_sys equal v_massAll/v_volCm3
variable tmp equal temp

thermo_style custom step temp press etotal pe v_density_sys

thermo 1000 
thermo_modify flush yes
run 500000 # 500ps
write_data tip4p-ice.data pair ij